c Command line: hgen8 105 90
p cnf 105 170
37 62 5 36 0
54 12 14 57 0
20 90 98 95 0
97 84 28 74 0
75 51 34 69 0
39 80 59 77 0
76 71 24 81 0
4 105 99 15 0
19 78 67 64 0
47 16 27 23 0
92 66 63 85 0
17 68 29 48 0
35 52 100 65 0
31 61 18 11 0
49 88 93 56 0
83 42 30 50 0
26 38 73 44 0
60 13 72 96 0
3 43 41 45 0
103 2 6 46 0
10 1 94 87 0
89 8 32 22 0
-1 -2 0
-1 -3 0
-1 -4 0
-1 -5 0
-2 -3 0
-2 -4 0
-2 -5 0
-3 -4 0
-3 -5 0
-4 -5 0
-6 -8 0
-6 -10 0
-8 -10 0
-11 -12 0
-11 -13 0
-11 -14 0
-11 -15 0
-12 -13 0
-12 -14 0
-12 -15 0
-13 -14 0
-13 -15 0
-14 -15 0
-16 -17 0
-16 -18 0
-16 -19 0
-16 -20 0
-17 -18 0
-17 -19 0
-17 -20 0
-18 -19 0
-18 -20 0
-19 -20 0
-22 -23 0
-22 -24 0
-23 -24 0
-26 -27 0
-26 -28 0
-26 -29 0
-26 -30 0
-27 -28 0
-27 -29 0
-27 -30 0
-28 -29 0
-28 -30 0
-29 -30 0
-31 -32 0
-31 -34 0
-31 -35 0
-32 -34 0
-32 -35 0
-34 -35 0
-36 -37 0
-36 -38 0
-36 -39 0
-37 -38 0
-37 -39 0
-38 -39 0
-41 -42 0
-41 -43 0
-41 -44 0
-41 -45 0
-42 -43 0
-42 -44 0
-42 -45 0
-43 -44 0
-43 -45 0
-44 -45 0
-46 -47 0
-46 -48 0
-46 -49 0
-46 -50 0
-47 -48 0
-47 -49 0
-47 -50 0
-48 -49 0
-48 -50 0
-49 -50 0
-51 -52 0
-51 -54 0
-52 -54 0
-56 -57 0
-56 -59 0
-56 -60 0
-57 -59 0
-57 -60 0
-59 -60 0
-61 -62 0
-61 -63 0
-61 -64 0
-61 -65 0
-62 -63 0
-62 -64 0
-62 -65 0
-63 -64 0
-63 -65 0
-64 -65 0
-66 -67 0
-66 -68 0
-66 -69 0
-67 -68 0
-67 -69 0
-68 -69 0
-71 -72 0
-71 -73 0
-71 -74 0
-71 -75 0
-72 -73 0
-72 -74 0
-72 -75 0
-73 -74 0
-73 -75 0
-74 -75 0
-76 -77 0
-76 -78 0
-76 -80 0
-77 -78 0
-77 -80 0
-78 -80 0
-81 -83 0
-81 -84 0
-81 -85 0
-83 -84 0
-83 -85 0
-84 -85 0
-87 -88 0
-87 -89 0
-87 -90 0
-88 -89 0
-88 -90 0
-89 -90 0
-92 -93 0
-92 -94 0
-92 -95 0
-93 -94 0
-93 -95 0
-94 -95 0
-96 -97 0
-96 -98 0
-96 -99 0
-96 -100 0
-97 -98 0
-97 -99 0
-97 -100 0
-98 -99 0
-98 -100 0
-99 -100 0
-103 -105 0
